33D32945 STP File, STP Format Version 1.0

SECTION Comments
Name "cube_n12_d3_s6"
Problem "Euclidean Steiner Tree Problem"
Remark "Generated with STPGenerator. 3 dimensions."
END

SECTION Graph
Nodes 12
END

SECTION Coordinates
DDD 0 0.1354387687 0.9625167521 0.7997272130
DDD 1 0.4030091993 0.0851281491 0.8056346727
DDD 2 0.6451566176 0.2473998085 0.3098868776
DDD 3 0.9831179767 0.5296626759 0.9438327159
DDD 4 0.8782621500 0.7782872272 0.4166978609
DDD 5 0.2226562315 0.5511224272 0.0462225136
DDD 6 0.6177704891 0.4252223039 0.3870529828
DDD 7 0.7761541152 0.6623876005 0.1703382573
DDD 8 0.3191112491 0.3110007436 0.6911040380
DDD 9 0.1034285073 0.9779993249 0.8022396713
DDD 10 0.6132100036 0.1134380932 0.7647564228
DDD 11 0.4129372162 0.5164472929 0.8498845724
END
